(set-logic HORN)
(set-info :source |
    Benchmark: C_VC
    Output by Princess (http://www.philipp.ruemmer.org/princess.shtml)
|)
(set-info :status sat)
(declare-heap Heap Addr HeapObject
 defObj
 ((HeapObject 0) (node 0)) (
  (
   (O_Int (getInt Int))
   (O_Addr (getAddr Addr))
   (O_node (getnode node))
   (defObj)
  )
  (
   (node (next Addr) (data Int))
  )
))
(declare-fun inv_main12 (Heap Int Int Int Int Int Addr) Bool)
(declare-fun inv_main15 (Heap Int Int Int Int Int Addr Int) Bool)
(declare-fun inv_main18 (Heap Int Int Int Int Int Addr) Bool)
(declare-fun inv_main21 (Heap Int Int Int Int Addr Addr) Bool)
(declare-fun inv_main22 (Heap Int Int Int Int Addr Addr) Bool)
(declare-fun inv_main28 (Heap Int Int Int Int Addr Addr Int Addr) Bool)
(declare-fun inv_main31 (Heap Int Int Int Int Addr Addr Int Addr Int) Bool)
(declare-fun inv_main34 (Heap Int Int Int Int Addr Addr Int Addr) Bool)
(declare-fun inv_main36 (Heap Int Int Int Int Addr Addr Addr) Bool)
(declare-fun inv_main4 (Heap Int Int) Bool)
(declare-fun inv_main43 (Heap Int Int Addr Int) Bool)
(declare-fun inv_main49 (Heap Int Int Addr Int Int Addr) Bool)
(declare-fun inv_main51 (Heap Int Int Addr Int Int Addr) Bool)
(declare-fun inv_main57 (Heap Int Int Addr Int Int Addr Addr) Bool)
(declare-fun inv_main59 (Heap Int Int Addr Int Int Addr Addr) Bool)
(declare-fun inv_main62 (Heap Int Int Addr Int Int Addr Addr) Bool)
(declare-fun inv_main66 (Heap Int Int Addr Int) Bool)
(assert (forall ((var0 Heap)) (or (not (= var0 emptyHeap)) (inv_main4 var0 2 1))))
(assert (forall ((var0 Addr) (var1 Int) (var2 Int) (var3 Int) (var4 Int) (var5 Int) (var6 Addr) (var7 Heap) (var8 Addr) (var9 Int)) (or (not (inv_main31 var7 var1 var9 var3 var4 var8 var0 var2 var6 var5)) (inv_main31 var7 var1 var9 var3 var4 var8 var0 var2 var6 var5))))
(assert (forall ((var0 Int) (var1 Int) (var2 Addr) (var3 Int) (var4 Int) (var5 Heap) (var6 Addr) (var7 Addr) (var8 Addr) (var9 Int) (var10 Addr) (var11 Heap) (var12 Int) (var13 Int) (var14 node) (var15 Int) (var16 Int)) (or (not (and (inv_main21 var11 var1 var15 var3 var4 var6 var8) (and (and (= nullAddr var10) (and (and (and (and (and (and (and (and (= var5 (newHeap (alloc var11 (O_node var14)))) (= var0 var1)) (= var12 var15)) (= var9 var3)) (= var13 var4)) (= var7 var6)) (= var2 var8)) (= var16 var4)) (= var10 (newAddr (alloc var11 (O_node var14)))))) (<= 0 (+ (+ var3 (- 1)) (- 1)))))) (inv_main31 var5 var0 var12 var9 var13 var7 var2 var16 var10 1))))
(assert (forall ((var0 Int) (var1 Int) (var2 Int) (var3 Addr) (var4 Int) (var5 Int) (var6 Int) (var7 Heap) (var8 Addr) (var9 Int) (var10 Addr) (var11 Int) (var12 Heap) (var13 Addr)) (or (not (and (inv_main62 var7 var0 var9 var10 var6 var4 var13 var3) (and (and (and (and (and (= var12 (write var7 var3 (O_node (node var10 (data (getnode (read var7 var3))))))) (= var2 var0)) (= var11 var9)) (= var8 var10)) (= var1 var6)) (= var5 var4)))) (inv_main43 var12 var2 var11 var8 (+ var1 1)))))
(assert (forall ((var0 Int) (var1 Int) (var2 Int) (var3 Int) (var4 Int) (var5 Int) (var6 Int) (var7 Addr) (var8 Int) (var9 Int) (var10 Addr) (var11 Int) (var12 Int) (var13 Int) (var14 Addr) (var15 Heap) (var16 Heap) (var17 Heap) (var18 Int) (var19 Int) (var20 Addr) (var21 Int) (var22 Int) (var23 Heap) (var24 Addr) (var25 Addr) (var26 Addr) (var27 Addr)) (or (not (and (inv_main49 var23 var1 var9 var10 var19 var13 var27) (and (and (and (= var24 var25) (and (= var26 var25) (and (and (and (and (and (and (and (= var17 var23) (= var2 var1)) (= var4 var9)) (= var25 var10)) (= var22 var19)) (= var18 var13)) (= var24 var27)) (= var26 (next (getnode (read var23 var27))))))) (and (and (and (and (and (and (= var16 (write var17 var25 defObj)) (= var0 var2)) (= var12 var4)) (= var7 var25)) (= var21 var22)) (= var5 var18)) (= var14 var24))) (and (and (and (and (and (= var15 var16) (= var11 var0)) (= var6 var12)) (= var20 nullAddr)) (= var8 var21)) (= var3 var5))))) (inv_main43 var15 var11 var6 var20 (+ var8 1)))))
(assert (forall ((var0 Int) (var1 Int) (var2 Int) (var3 Int) (var4 Heap) (var5 Addr) (var6 Int) (var7 Addr) (var8 Int) (var9 Addr) (var10 Addr) (var11 Heap) (var12 Int) (var13 Int)) (or (not (and (inv_main22 var11 var0 var13 var2 var3 var5 var9) (and (and (and (and (and (and (= var4 (write var11 var9 (O_node (node var5 (data (getnode (read var11 var9))))))) (= var12 var0)) (= var1 var13)) (= var6 var2)) (= var8 var3)) (= var10 var5)) (= var7 var9)))) (inv_main43 var4 var12 var1 var10 0))))
(assert (forall ((var0 Int) (var1 node) (var2 Int) (var3 Int) (var4 Addr) (var5 Heap) (var6 Heap) (var7 Int) (var8 Int) (var9 Int) (var10 Int)) (or (not (and (inv_main4 var5 var0 var8) (and (not (= nullAddr var4)) (and (and (and (and (and (and (= var6 (newHeap (alloc var5 (O_node var1)))) (= var10 var0)) (= var9 var8)) (= var7 var0)) (= var2 var8)) (= var3 var8)) (= var4 (newAddr (alloc var5 (O_node var1)))))))) (inv_main12 var6 var10 var9 var7 var2 var3 var4))))
(assert (forall ((var0 Int) (var1 Int) (var2 Heap) (var3 Int) (var4 Addr)) (or (not (and (inv_main43 var2 var0 var3 var4 var1) (and (not (= nullAddr var4)) (not (<= 0 (+ (+ var0 (* (- 1) var1)) (- 1))))))) (inv_main66 var2 var0 var3 var4 var1))))
(assert (forall ((var0 Addr) (var1 Int) (var2 Int) (var3 Int) (var4 Heap) (var5 Addr) (var6 Int)) (or (not (and (inv_main21 var4 var1 var6 var2 var3 var5 var0) (not (<= 0 (+ (+ var2 (- 1)) (- 1)))))) (inv_main22 var4 var1 var6 var2 var3 var5 var0))))
(assert (forall ((var0 Int) (var1 Addr) (var2 Int) (var3 Addr) (var4 Addr) (var5 Addr) (var6 Int) (var7 Addr) (var8 Int) (var9 Int) (var10 Heap) (var11 Heap) (var12 Int) (var13 Int) (var14 Addr) (var15 Int) (var16 Addr)) (or (not (and (inv_main59 var10 var0 var12 var14 var9 var6 var16 var4) (and (and (and (and (and (and (and (and (= var11 var10) (= var13 var0)) (= var8 var12)) (= var3 var14)) (= var2 var9)) (= var15 var6)) (= var1 var16)) (= var7 var4)) (= var5 (next (getnode (read var10 var4))))))) (inv_main57 var11 var13 var8 var3 var2 var15 var1 var5))))
(assert (forall ((var0 Addr) (var1 Int) (var2 Int) (var3 Int) (var4 Heap) (var5 Int) (var6 Int) (var7 Int) (var8 Int) (var9 Heap) (var10 Addr) (var11 Int) (var12 Addr) (var13 Addr) (var14 Addr)) (or (not (and (inv_main49 var9 var1 var11 var13 var7 var2 var14) (and (not (= var10 var12)) (and (= var0 var12) (and (and (and (and (and (and (and (= var4 var9) (= var3 var1)) (= var5 var11)) (= var12 var13)) (= var8 var7)) (= var6 var2)) (= var10 var14)) (= var0 (next (getnode (read var9 var14))))))))) (inv_main57 var4 var3 var5 var12 var8 var6 var10 var12))))
(assert (forall ((var0 Int) (var1 Int) (var2 Int) (var3 Int) (var4 Heap) (var5 Int) (var6 Addr) (var7 Addr) (var8 Int) (var9 Int) (var10 Addr) (var11 Heap) (var12 Int) (var13 Int) (var14 node) (var15 Addr) (var16 Addr)) (or (not (and (inv_main21 var11 var0 var13 var2 var3 var7 var10) (and (and (not (= nullAddr var6)) (and (and (and (and (and (and (and (and (= var4 (newHeap (alloc var11 (O_node var14)))) (= var12 var0)) (= var5 var13)) (= var8 var2)) (= var9 var3)) (= var15 var7)) (= var16 var10)) (= var1 var3)) (= var6 (newAddr (alloc var11 (O_node var14)))))) (<= 0 (+ (+ var2 (- 1)) (- 1)))))) (inv_main28 var4 var12 var5 var8 var9 var15 var16 var1 var6))))
(assert (forall ((var0 Addr) (var1 Int) (var2 Int) (var3 Int) (var4 Int) (var5 Addr) (var6 Heap) (var7 Addr) (var8 Int)) (or (not (inv_main28 var6 var1 var8 var3 var4 var7 var0 var2 var5)) (inv_main34 (write var6 var5 (O_node (node nullAddr (data (getnode (read var6 var5)))))) var1 var8 var3 var4 var7 var0 var2 var5))))
(assert (forall ((var0 Int) (var1 Int) (var2 Int) (var3 Heap) (var4 Addr) (var5 Int) (var6 Int)) (or (not (inv_main12 var3 var0 var5 var1 var2 var6 var4)) (inv_main18 (write var3 var4 (O_node (node nullAddr (data (getnode (read var3 var4)))))) var0 var5 var1 var2 var6 var4))))
(assert (forall ((var0 Int) (var1 Addr) (var2 Addr) (var3 Addr) (var4 Int) (var5 Int) (var6 Heap) (var7 Int) (var8 Int) (var9 Addr) (var10 Int) (var11 Heap) (var12 Int) (var13 Int) (var14 Addr) (var15 Addr) (var16 Addr)) (or (not (and (inv_main57 var11 var0 var13 var14 var8 var4 var16 var3) (and (= var15 var1) (and (and (and (and (and (and (and (and (= var6 var11) (= var10 var0)) (= var5 var13)) (= var9 var14)) (= var12 var8)) (= var7 var4)) (= var1 var16)) (= var2 var3)) (= var15 (next (getnode (read var11 var3)))))))) (inv_main62 (write var6 var1 defObj) var10 var5 var9 var12 var7 var1 var2))))
(assert (forall ((var0 Int) (var1 Heap) (var2 Addr) (var3 Int) (var4 Int) (var5 Int) (var6 Int) (var7 Heap) (var8 Int) (var9 Int) (var10 Int) (var11 Addr) (var12 Addr) (var13 Addr) (var14 Addr)) (or (not (and (inv_main51 var7 var0 var10 var11 var5 var4 var14) (and (and (and (and (and (and (and (= var1 var7) (= var8 var0)) (= var3 var10)) (= var2 var11)) (= var9 var5)) (= var6 var4)) (= var12 var14)) (= var13 (next (getnode (read var7 var14))))))) (inv_main49 var1 var8 var3 var2 var9 var6 var13))))
(assert (forall ((var0 Int) (var1 Int) (var2 Heap) (var3 Int) (var4 Addr)) (or (not (and (inv_main43 var2 var0 var3 var4 var1) (<= 0 (+ (+ var0 (* (- 1) var1)) (- 1))))) (inv_main49 var2 var0 var3 var4 var1 3 var4))))
(assert (forall ((var0 Int) (var1 Addr) (var2 Addr) (var3 Int) (var4 Int) (var5 Int) (var6 Heap) (var7 Addr) (var8 Int) (var9 Int) (var10 Int) (var11 Heap) (var12 Int) (var13 Addr) (var14 Addr) (var15 Addr) (var16 Addr)) (or (not (and (inv_main57 var11 var0 var12 var13 var9 var5 var16 var2) (and (not (= var14 var7)) (and (and (and (and (and (and (and (and (= var6 var11) (= var3 var0)) (= var8 var12)) (= var1 var13)) (= var10 var9)) (= var4 var5)) (= var7 var16)) (= var15 var2)) (= var14 (next (getnode (read var11 var2)))))))) (inv_main59 var6 var3 var8 var1 var10 var4 var7 var15))))
(assert (forall ((var0 Int) (var1 Int) (var2 Int) (var3 Int) (var4 Int) (var5 Int) (var6 Addr) (var7 Addr) (var8 Heap) (var9 Addr) (var10 Int) (var11 Addr) (var12 Addr) (var13 Heap) (var14 Int) (var15 Int) (var16 Int) (var17 Addr)) (or (not (and (inv_main34 var13 var0 var16 var1 var2 var7 var9 var10 var12) (and (and (and (and (and (and (and (and (= var8 (write var13 var12 (O_node (node (next (getnode (read var13 var12))) var10)))) (= var5 var0)) (= var4 var16)) (= var14 var1)) (= var3 var2)) (= var11 var7)) (= var6 var9)) (= var15 var10)) (= var17 var12)))) (inv_main36 var8 var5 var4 var14 var3 var11 var6 var17))))
(assert (forall ((var0 Int) (var1 Int) (var2 Int) (var3 Heap) (var4 Addr) (var5 Int) (var6 Int) (var7 Int)) (or (not (inv_main15 var3 var0 var6 var1 var2 var7 var4 var5)) (inv_main15 var3 var0 var6 var1 var2 var7 var4 var5))))
(assert (forall ((var0 Int) (var1 node) (var2 Int) (var3 Int) (var4 Int) (var5 Heap) (var6 Int) (var7 Int) (var8 Heap) (var9 Addr) (var10 Int)) (or (not (and (inv_main4 var5 var0 var6) (and (= nullAddr var9) (and (and (and (and (and (and (= var8 (newHeap (alloc var5 (O_node var1)))) (= var4 var0)) (= var7 var6)) (= var10 var0)) (= var2 var6)) (= var3 var6)) (= var9 (newAddr (alloc var5 (O_node var1)))))))) (inv_main15 var8 var4 var7 var10 var2 var3 var9 1))))
(assert (forall ((var0 Int) (var1 Heap) (var2 Int) (var3 Int) (var4 Int) (var5 Int) (var6 Addr) (var7 Int) (var8 Addr) (var9 Addr) (var10 Addr) (var11 Addr) (var12 Addr) (var13 Heap) (var14 Int) (var15 Int)) (or (not (and (inv_main36 var13 var0 var15 var3 var4 var6 var10 var8) (and (and (and (and (and (and (and (= var1 (write var13 var8 (O_node (node var6 (data (getnode (read var13 var8))))))) (= var14 var0)) (= var7 var15)) (= var2 var3)) (= var5 var4)) (= var9 var6)) (= var11 var10)) (= var12 var8)))) (inv_main21 var1 var14 var7 (+ var2 (- 1)) var5 var12 var11))))
(assert (forall ((var0 Int) (var1 Int) (var2 Int) (var3 Int) (var4 Int) (var5 Int) (var6 Int) (var7 Int) (var8 Heap) (var9 Addr) (var10 Addr) (var11 Heap) (var12 Int) (var13 Int)) (or (not (and (inv_main18 var8 var0 var12 var2 var3 var6 var9) (and (and (and (and (and (and (= var11 (write var8 var9 (O_node (node (next (getnode (read var8 var9))) var6)))) (= var7 var0)) (= var1 var12)) (= var4 var2)) (= var13 var3)) (= var5 var6)) (= var10 var9)))) (inv_main21 var11 var7 var1 var4 var13 var10 var10))))
(assert (forall ((var0 Int) (var1 Int) (var2 Int) (var3 Int) (var4 Int) (var5 Int) (var6 Addr) (var7 Heap) (var8 Addr) (var9 Addr) (var10 Int) (var11 Int) (var12 Addr) (var13 Heap) (var14 Addr)) (or (not (and (inv_main49 var7 var0 var11 var12 var4 var3 var14) (and (not (= var6 var8)) (and (and (and (and (and (and (and (= var13 var7) (= var1 var0)) (= var2 var11)) (= var8 var12)) (= var5 var4)) (= var10 var3)) (= var9 var14)) (= var6 (next (getnode (read var7 var14)))))))) (inv_main51 var13 var1 var2 var8 var5 var10 var9))))
(assert (forall ((var0 Int) (var1 Int) (var2 Int) (var3 Heap) (var4 Addr) (var5 Int) (var6 Int)) (not (and (inv_main12 var3 var0 var5 var1 var2 var6 var4) (not (is-O_node (read var3 var4)))))))
(assert (forall ((var0 Int) (var1 Int) (var2 Int) (var3 Heap) (var4 Addr) (var5 Int) (var6 Int)) (not (and (inv_main18 var3 var0 var5 var1 var2 var6 var4) (not (is-O_node (read var3 var4)))))))
(assert (forall ((var0 Addr) (var1 Int) (var2 Int) (var3 Int) (var4 Int) (var5 Addr) (var6 Heap) (var7 Addr) (var8 Int)) (not (and (inv_main28 var6 var1 var8 var3 var4 var7 var0 var2 var5) (not (is-O_node (read var6 var5)))))))
(assert (forall ((var0 Addr) (var1 Int) (var2 Int) (var3 Int) (var4 Int) (var5 Addr) (var6 Heap) (var7 Addr) (var8 Int)) (not (and (inv_main34 var6 var1 var8 var3 var4 var7 var0 var2 var5) (not (is-O_node (read var6 var5)))))))
(assert (forall ((var0 Addr) (var1 Int) (var2 Int) (var3 Int) (var4 Heap) (var5 Addr) (var6 Int) (var7 Addr)) (not (and (inv_main36 var4 var1 var6 var2 var3 var5 var0 var7) (not (is-O_node (read var4 var7)))))))
(assert (forall ((var0 Addr) (var1 Int) (var2 Int) (var3 Int) (var4 Heap) (var5 Addr) (var6 Int)) (not (and (inv_main22 var4 var1 var6 var2 var3 var5 var0) (not (is-O_node (read var4 var0)))))))
(assert (forall ((var0 Int) (var1 Int) (var2 Heap) (var3 Int) (var4 Int) (var5 Addr) (var6 Addr)) (not (and (inv_main49 var2 var0 var4 var5 var1 var3 var6) (not (is-O_node (read var2 var6)))))))
(assert (forall ((var0 Int) (var1 Int) (var2 Heap) (var3 Int) (var4 Int) (var5 Addr) (var6 Addr)) (not (and (inv_main51 var2 var0 var4 var5 var1 var3 var6) (not (is-O_node (read var2 var6)))))))
(assert (forall ((var0 Int) (var1 Int) (var2 Heap) (var3 Addr) (var4 Int) (var5 Int) (var6 Addr) (var7 Addr)) (not (and (inv_main57 var2 var0 var5 var6 var1 var4 var7 var3) (not (is-O_node (read var2 var3)))))))
(assert (forall ((var0 Int) (var1 Int) (var2 Heap) (var3 Addr) (var4 Int) (var5 Int) (var6 Addr) (var7 Addr)) (not (and (inv_main59 var2 var0 var5 var6 var1 var4 var7 var3) (not (is-O_node (read var2 var3)))))))
(assert (forall ((var0 Int) (var1 Int) (var2 Heap) (var3 Addr) (var4 Int) (var5 Int) (var6 Addr) (var7 Addr)) (not (and (inv_main62 var2 var0 var5 var6 var1 var4 var7 var3) (not (is-O_node (read var2 var3)))))))
(assert (forall ((var0 Int) (var1 Int) (var2 Heap) (var3 Int) (var4 Addr)) (not (inv_main66 var2 var0 var3 var4 var1))))
(check-sat)
